30
1 0 1
2 0 1
2 1 1
3 0 1
3 1 1
4 0 1
4 1 1
4 2 1
4 3 1
6 0 1
6 1 1
6 3 1
7 0 1
7 2 1
7 3 1
7 4 1
7 5 1
7 6 1
8 1 1
8 2 1
8 3 1
8 5 1
9 1 1
9 2 1
9 5 1
9 6 1
9 8 1
10 1 1
10 5 1
10 6 1
10 7 1
10 8 1
10 9 1
11 0 1
11 1 1
12 0 1
12 1 1
12 2 1
12 7 1
12 8 1
12 10 1
12 11 1
13 10 1
13 12 1
14 0 1
14 1 1
14 4 1
14 5 1
14 8 1
14 11 1
15 0 1
15 2 1
15 5 1
15 7 1
15 8 1
16 0 1
16 1 1
16 2 1
16 3 1
16 4 1
16 5 1
16 8 1
16 11 1
16 13 1
17 1 1
17 2 1
17 3 1
17 4 1
17 6 1
17 8 1
17 9 1
17 11 1
17 14 1
17 16 1
18 1 1
18 2 1
18 3 1
18 4 1
18 6 1
18 7 1
18 8 1
18 11 1
18 12 1
18 13 1
19 0 1
19 2 1
19 3 1
19 5 1
19 6 1
19 8 1
19 9 1
19 10 1
19 11 1
19 13 1
19 14 1
19 16 1
19 17 1
20 1 1
20 2 1
20 12 1
20 15 1
20 16 1
20 17 1
20 18 1
21 0 1
21 1 1
21 3 1
21 4 1
21 5 1
21 6 1
21 7 1
21 12 1
21 16 1
21 17 1
21 18 1
21 19 1
22 2 1
22 4 1
22 5 1
22 6 1
22 7 1
22 10 1
22 14 1
22 15 1
22 16 1
22 17 1
22 20 1
23 0 1
23 2 1
23 10 1
23 19 1
23 21 1
24 0 1
24 2 1
24 3 1
24 7 1
24 8 1
24 9 1
24 12 1
24 14 1
24 15 1
24 16 1
24 17 1
24 19 1
24 22 1
25 0 1
25 4 1
25 5 1
25 6 1
25 9 1
25 12 1
25 13 1
25 15 1
25 18 1
25 19 1
25 22 1
25 23 1
25 24 1
26 2 1
26 4 1
26 5 1
26 6 1
26 7 1
26 8 1
26 9 1
26 10 1
26 11 1
26 12 1
26 14 1
26 15 1
26 16 1
26 19 1
26 20 1
26 21 1
26 23 1
26 24 1
27 0 1
27 1 1
27 2 1
27 3 1
27 7 1
27 11 1
27 14 1
27 15 1
27 16 1
27 18 1
27 19 1
27 20 1
27 21 1
27 22 1
27 23 1
27 26 1
28 1 1
28 2 1
28 3 1
28 7 1
28 9 1
28 11 1
28 12 1
28 13 1
28 14 1
28 15 1
28 18 1
28 19 1
28 20 1
28 22 1
28 24 1
28 25 1
28 26 1
28 27 1
29 0 1
29 6 1
29 7 1
29 8 1
29 9 1
29 10 1
29 13 1
29 14 1
29 15 1
29 16 1
29 21 1
29 23 1
